543 5
10 10 10 10 10 

0 0 0 0 0 0 5 2 14 26 38 50 
0 0 0 0 0 0 4 3 7 8 9 
8 0 1 0 0 0 1 4 
1 0 1 0 0 0 1 5 
8 0 2 0 0 0 2 10 6 
2 0 4 0 0 0 1 11 
9 0 2 0 0 0 1 12 
2 0 3 0 0 0 1 10 
6 0 2 0 0 0 1 10 
5 0 4 0 0 0 2 13 485 
4 0 2 0 0 0 1 13 
3 0 4 0 0 0 1 13 
0 0 0 0 0 0 1 62 
0 0 0 0 0 0 6 15 17 20 22 23 24 
2 0 0 0 0 1 1 16 
5 0 0 0 0 4 1 18 
6 0 0 0 0 3 1 18 
2 0 0 0 0 1 2 19 316 
3 0 0 0 0 2 1 21 
9 0 0 0 0 2 1 21 
4 0 0 0 0 3 1 25 
1 0 0 0 0 4 1 25 
4 0 0 0 0 3 1 25 
6 0 0 0 0 2 1 25 
0 0 0 0 0 0 1 62 
0 0 0 0 0 0 1 27 
5 0 0 0 0 1 2 29 28 
4 0 0 0 0 3 2 33 31 
6 0 0 0 0 1 1 30 
3 0 0 0 0 4 2 36 32 
1 0 0 0 0 3 2 36 32 
10 0 0 0 0 1 3 35 34 110 
3 0 0 0 0 2 2 35 34 
4 0 0 0 0 4 1 37 
10 0 0 0 0 3 1 37 
7 0 0 0 0 3 1 37 
0 0 0 0 0 0 1 62 
0 0 0 0 0 0 1 39 
4 0 0 0 0 1 3 44 41 40 
8 0 0 0 0 2 2 43 42 
10 0 0 0 0 2 2 43 42 
10 0 0 0 0 2 3 48 47 46 
6 0 0 0 0 1 2 48 45 
9 0 0 0 0 3 2 47 46 
5 0 0 0 0 3 2 46 504 
6 0 0 0 0 6 1 49 
1 0 0 0 0 3 1 49 
9 0 0 0 0 2 1 49 
0 0 0 0 0 0 1 62 
0 0 0 0 0 0 5 51 52 54 59 60 
6 0 0 0 0 1 2 58 53 
6 0 0 0 0 4 2 58 55 
1 0 0 0 0 3 1 55 
8 0 0 0 0 3 1 55 
3 0 0 0 0 3 1 56 
8 0 0 0 0 1 2 57 259 
8 0 0 0 0 2 1 61 
9 0 0 0 0 2 1 61 
3 0 0 0 0 5 1 61 
6 0 0 0 0 1 1 61 
0 0 0 0 0 0 1 62 
0 0 0 0 0 0 5 63 105 117 159 201 
0 0 0 0 0 0 2 64 66 
9 1 1 0 1 1 1 65 
2 2 2 0 2 3 2 68 67 
9 3 4 0 3 2 1 67 
10 3 1 0 3 2 4 79 73 71 70 
7 3 2 0 4 3 3 73 71 69 
8 3 2 0 3 3 1 70 
2 2 3 0 3 2 3 77 75 72 
9 3 2 0 2 4 3 83 77 76 
4 1 1 0 2 2 2 83 74 
6 4 2 0 7 1 2 77 76 
9 2 2 0 1 2 1 76 
3 2 2 0 3 2 1 76 
3 2 2 0 1 5 2 85 78 
8 5 1 0 5 3 2 85 78 
10 1 1 0 4 2 3 88 82 80 
6 2 3 0 2 3 3 87 86 83 
4 2 1 0 3 1 1 81 
3 2 1 0 4 1 4 96 91 87 84 
7 2 3 0 3 1 2 91 84 
5 1 3 0 3 2 3 96 90 88 
7 3 3 0 1 2 1 86 
7 2 1 0 2 3 3 96 94 89 
2 2 4 0 3 2 2 92 89 
1 3 2 0 1 5 3 98 94 93 
5 3 4 0 1 1 2 93 91 
4 4 4 0 1 3 1 90 
9 3 4 0 1 2 2 98 93 
1 3 4 0 2 2 1 94 
10 4 5 0 1 4 1 94 
3 2 2 0 1 4 2 103 97 
4 3 3 0 3 6 1 95 
1 1 2 0 4 4 3 103 102 99 
8 3 4 0 2 4 3 103 102 100 
9 3 4 0 1 1 2 102 99 
7 3 2 0 3 2 2 103 102 
10 1 4 0 5 3 1 100 
8 4 1 0 2 1 2 101 198 
10 2 5 0 2 2 1 104 
3 2 1 0 3 3 1 104 
4 3 2 0 2 1 1 104 
0 0 0 0 0 0 1 543 
0 0 0 0 0 0 2 106 107 
3 0 0 0 0 1 2 109 108 
1 0 0 0 0 1 2 110 109 
8 0 0 0 0 4 3 115 112 110 
6 0 0 0 0 4 3 115 114 112 
5 0 0 0 0 3 1 111 
9 0 0 0 0 4 2 114 113 
5 0 0 0 0 1 1 113 
4 0 0 0 0 1 1 116 
5 0 0 0 0 4 1 116 
7 0 0 0 0 2 1 116 
0 0 0 0 0 0 5 243 275 307 319 351 
0 0 0 0 0 0 2 118 120 
4 1 0 1 1 1 1 119 
2 2 0 4 2 1 2 122 121 
1 2 0 4 2 2 1 121 
1 4 0 3 2 2 4 135 128 126 124 
2 3 0 1 2 4 3 128 126 123 
6 4 0 1 3 3 1 124 
6 1 0 2 2 3 3 131 130 125 
8 2 0 6 2 5 2 140 127 
5 2 0 3 3 1 2 140 130 
7 3 0 2 4 5 1 129 
7 2 0 3 6 4 1 129 
8 1 0 1 2 1 3 141 139 132 
4 3 0 2 3 1 3 141 139 132 
8 2 0 2 2 2 3 141 139 132 
8 3 0 3 1 2 2 136 133 
2 3 0 4 2 2 1 134 
8 2 0 3 3 2 4 154 145 144 137 
9 5 0 2 2 3 3 144 143 140 
6 2 0 4 3 2 2 145 137 
7 4 0 3 4 3 1 138 
9 1 0 3 2 1 3 148 146 142 
7 2 0 2 1 5 3 154 146 142 
5 2 0 3 3 4 3 154 153 141 
7 2 0 3 2 3 2 150 145 
10 2 0 5 2 2 1 143 
1 2 0 4 4 2 2 153 147 
10 3 0 2 1 6 2 149 147 
9 2 0 2 2 2 1 146 
1 3 0 2 3 1 2 157 149 
10 4 0 4 1 2 2 156 150 
6 1 0 3 3 2 2 157 149 
10 2 0 1 1 2 2 156 151 
4 3 0 1 2 2 2 157 151 
6 3 0 2 4 3 1 152 
8 3 0 2 5 1 1 155 
9 3 0 1 2 5 1 156 
9 5 0 1 3 1 1 155 
2 3 0 1 3 2 1 158 
10 2 0 2 3 2 1 158 
6 1 0 2 2 3 1 158 
0 0 0 0 0 0 1 543 
0 0 0 0 0 0 2 160 162 
7 1 1 1 0 1 1 161 
6 2 1 3 0 3 2 164 163 
9 1 5 1 0 4 1 163 
7 4 1 2 0 1 4 177 169 167 166 
7 2 2 3 0 2 3 169 167 165 
5 1 6 3 0 4 1 166 
1 2 3 3 0 2 3 173 172 168 
7 4 3 1 0 2 3 180 172 171 
9 4 3 4 0 2 2 180 170 
3 4 1 2 0 3 2 172 171 
7 1 2 3 0 3 1 171 
5 6 3 3 0 1 3 183 182 174 
5 2 2 2 0 3 3 183 182 174 
1 4 2 1 0 3 3 183 182 174 
9 2 4 2 0 2 2 178 175 
8 2 3 2 0 1 1 176 
7 1 3 1 0 4 4 195 187 186 179 
3 2 3 3 0 1 4 190 186 185 180 
8 1 3 4 0 1 2 187 179 
3 4 2 2 0 1 1 181 
2 3 3 5 0 1 4 195 193 188 183 
1 1 2 3 0 3 3 190 189 184 
1 4 4 3 0 3 3 195 189 184 
9 1 4 3 0 1 2 192 187 
7 3 2 4 0 3 1 185 
7 2 2 3 0 2 2 193 188 
9 4 3 3 0 5 2 191 188 
7 3 2 2 0 5 1 189 
3 4 1 2 0 3 2 199 192 
4 1 2 5 0 1 2 198 191 
1 2 1 3 0 2 2 198 191 
3 1 5 2 0 1 2 199 194 
1 2 2 2 0 2 2 198 194 
3 1 3 1 0 2 2 199 198 
4 4 2 2 0 2 1 196 
10 3 2 2 0 2 1 196 
3 3 2 1 0 3 1 197 
8 2 1 2 0 5 1 200 
9 5 3 4 0 3 1 200 
1 1 1 2 0 7 1 200 
0 0 0 0 0 0 1 543 
0 0 0 0 0 0 2 202 206 
7 1 1 1 1 0 1 203 
3 1 1 5 3 0 2 205 204 
3 2 3 2 5 0 3 212 210 207 
3 5 5 1 1 0 2 222 208 
1 2 3 2 2 0 2 210 208 
2 1 3 1 1 0 1 208 
6 4 3 2 3 0 3 215 214 209 
9 5 2 3 3 0 2 223 211 
6 5 2 3 3 0 2 223 214 
8 3 5 2 2 0 1 213 
4 1 2 3 3 0 1 213 
3 2 2 3 1 0 3 227 224 216 
8 3 2 1 1 0 3 227 224 216 
9 2 3 2 5 0 5 231 227 224 219 218 
6 1 4 2 4 0 3 231 219 217 
2 2 2 4 1 0 1 218 
8 1 1 1 3 0 3 241 229 220 
4 5 1 2 2 0 2 229 220 
5 1 2 3 2 0 2 236 221 
3 1 3 4 1 0 3 240 234 225 
3 2 5 2 3 0 3 230 229 227 
6 3 1 6 4 0 3 233 229 227 
10 2 6 1 3 0 2 241 226 
9 2 3 3 3 0 1 226 
6 4 3 2 1 0 1 228 
5 2 1 3 5 0 3 239 234 232 
10 3 2 4 4 0 2 238 230 
3 3 2 2 5 0 2 234 232 
4 3 2 2 1 0 2 239 233 
2 3 4 4 2 0 2 239 233 
2 2 3 2 2 0 2 238 235 
6 4 2 6 1 0 1 235 
4 2 2 1 1 0 1 235 
10 2 2 1 1 0 1 237 
3 1 2 1 1 0 1 238 
8 2 2 4 3 0 1 242 
9 3 2 3 3 0 1 242 
8 4 2 1 5 0 1 242 
4 3 3 4 3 0 1 242 
10 2 1 1 2 0 1 242 
0 0 0 0 0 0 1 543 
0 0 0 0 0 0 3 244 245 260 
3 0 1 0 1 1 2 267 246 
2 0 1 0 1 1 2 267 246 
4 0 5 0 1 5 2 250 247 
7 0 3 0 2 3 2 254 248 
4 0 4 0 1 3 2 273 249 
5 0 2 0 2 2 2 261 251 
1 0 1 0 2 2 2 254 252 
6 0 2 0 3 4 1 252 
6 0 1 0 4 3 3 266 257 253 
10 0 2 0 2 2 2 263 255 
4 0 4 0 2 6 2 266 255 
1 0 1 0 5 3 1 256 
3 0 3 0 2 2 2 272 258 
7 0 1 0 2 2 2 272 259 
4 0 3 0 5 2 1 259 
8 0 2 0 2 2 3 271 265 262 
8 0 1 0 2 1 4 272 270 265 264 
8 0 4 0 1 4 2 271 262 
2 0 2 0 4 1 3 270 269 264 
10 0 1 0 2 1 1 264 
1 0 1 0 2 3 1 268 
4 0 3 0 3 2 1 269 
5 0 3 0 2 4 1 272 
8 0 2 0 3 1 1 268 
2 0 1 0 2 2 1 274 
9 0 6 0 4 1 1 274 
1 0 4 0 4 2 1 274 
9 0 5 0 2 1 1 274 
4 0 2 0 4 5 1 274 
1 0 4 0 3 4 1 274 
0 0 0 0 0 0 1 543 
0 0 0 0 0 0 3 276 290 305 
4 1 1 1 0 0 2 304 277 
5 2 2 3 0 0 3 302 301 278 
10 2 1 2 0 0 2 300 279 
2 1 1 2 0 0 1 280 
8 1 5 3 0 0 3 299 298 281 
8 2 3 2 0 0 2 297 282 
5 3 2 4 0 0 1 283 
6 2 2 2 0 0 2 296 284 
2 3 3 3 0 0 2 295 285 
8 2 3 1 0 0 2 294 286 
7 3 4 2 0 0 2 293 287 
4 2 4 2 0 0 2 292 288 
5 1 3 4 0 0 1 289 
9 4 1 2 0 0 1 291 
3 3 1 1 0 0 1 303 
10 3 3 2 0 0 1 306 
2 4 3 4 0 0 1 306 
1 4 1 2 0 0 1 306 
5 1 3 4 0 0 1 306 
9 2 4 5 0 0 1 306 
10 3 5 2 0 0 1 306 
1 2 3 1 0 0 1 306 
10 3 4 1 0 0 1 306 
10 3 2 3 0 0 1 306 
5 5 2 4 0 0 1 306 
9 2 1 3 0 0 1 306 
9 3 1 6 0 0 1 306 
9 2 1 1 0 0 1 306 
1 2 3 1 0 0 1 306 
8 4 3 2 0 0 1 306 
0 0 0 0 0 0 1 543 
0 0 0 0 0 0 2 308 310 
5 1 0 0 0 0 2 313 309 
5 1 0 0 0 0 2 312 311 
2 3 0 0 0 0 2 312 311 
8 3 0 0 0 0 3 317 316 314 
10 3 0 0 0 0 3 317 316 314 
3 3 0 0 0 0 2 316 314 
7 2 0 0 0 0 1 315 
9 4 0 0 0 0 1 318 
3 1 0 0 0 0 1 318 
9 4 0 0 0 0 1 318 
0 0 0 0 0 0 5 383 395 417 439 461 
0 0 0 0 0 0 3 320 332 349 
4 1 1 1 0 0 2 348 321 
4 1 4 3 0 0 2 346 322 
1 2 2 2 0 0 1 323 
3 1 4 4 0 0 3 345 343 324 
4 1 1 6 0 0 2 344 325 
5 4 4 2 0 0 3 342 341 326 
7 3 1 2 0 0 1 327 
6 3 3 1 0 0 2 340 328 
5 2 1 2 0 0 1 329 
4 2 1 1 0 0 1 330 
6 3 3 2 0 0 4 339 338 337 331 
2 2 2 2 0 0 2 336 333 
1 2 2 4 0 0 2 347 343 
3 3 2 2 0 0 1 334 
1 3 3 3 0 0 1 335 
2 4 3 1 0 0 1 350 
2 4 3 3 0 0 1 350 
6 3 2 2 0 0 1 350 
5 3 3 5 0 0 1 350 
9 1 4 1 0 0 1 350 
9 4 3 2 0 0 1 350 
4 4 2 4 0 0 1 350 
4 2 2 1 0 0 1 350 
4 3 2 1 0 0 1 350 
3 2 2 4 0 0 1 350 
3 1 7 1 0 0 1 350 
3 3 4 6 0 0 1 350 
2 2 2 2 0 0 1 350 
10 4 1 4 0 0 1 350 
6 2 1 1 0 0 1 350 
0 0 0 0 0 0 1 543 
0 0 0 0 0 0 3 352 353 381 
7 0 0 1 1 1 2 380 354 
7 0 0 3 3 2 3 380 361 355 
5 0 0 1 2 1 2 361 355 
8 0 0 3 1 5 1 356 
4 0 0 3 1 4 3 379 378 357 
6 0 0 6 3 2 1 358 
1 0 0 2 4 3 2 377 359 
1 0 0 4 2 1 2 375 360 
7 0 0 2 2 2 2 376 362 
9 0 0 3 3 2 3 375 374 364 
5 0 0 2 3 2 1 363 
5 0 0 1 1 2 2 374 365 
4 0 0 2 5 4 1 365 
9 0 0 2 3 3 1 366 
8 0 0 3 4 6 3 373 369 367 
2 0 0 2 3 2 3 372 370 368 
10 0 0 2 3 1 1 371 
7 0 0 2 2 2 1 370 
7 0 0 3 2 4 1 382 
8 0 0 4 2 1 1 382 
5 0 0 3 1 2 1 382 
1 0 0 2 3 3 1 382 
1 0 0 3 3 5 1 382 
2 0 0 5 2 1 1 382 
1 0 0 2 6 3 1 382 
3 0 0 2 1 3 1 382 
10 0 0 3 3 1 1 382 
6 0 0 1 2 2 1 382 
7 0 0 2 3 4 1 382 
2 0 0 1 1 1 1 382 
0 0 0 0 0 0 1 543 
0 0 0 0 0 0 2 384 388 
9 1 0 0 0 0 4 393 390 387 385 
4 2 0 0 0 0 1 386 
7 2 0 0 0 0 2 392 389 
3 4 0 0 0 0 2 392 389 
1 2 0 0 0 0 2 393 391 
4 5 0 0 0 0 1 391 
3 5 0 0 0 0 1 392 
8 1 0 0 0 0 1 394 
6 1 0 0 0 0 1 394 
6 2 0 0 0 0 1 394 
0 0 0 0 0 0 5 483 495 507 519 531 
0 0 0 0 0 0 1 396 
1 0 0 1 0 1 3 415 414 397 
10 0 0 3 0 1 2 413 398 
10 0 0 5 0 1 3 412 411 399 
9 0 0 3 0 4 2 410 400 
5 0 0 3 0 2 4 409 408 407 401 
5 0 0 3 0 2 2 406 402 
1 0 0 1 0 3 1 403 
9 0 0 1 0 3 1 404 
5 0 0 3 0 2 1 405 
9 0 0 3 0 4 1 416 
6 0 0 1 0 2 1 416 
1 0 0 2 0 5 1 416 
1 0 0 2 0 3 1 416 
2 0 0 7 0 3 1 416 
9 0 0 3 0 2 1 416 
7 0 0 2 0 2 1 416 
8 0 0 2 0 3 1 416 
2 0 0 1 0 2 1 416 
2 0 0 2 0 3 1 416 
4 0 0 2 0 2 1 416 
0 0 0 0 0 0 1 543 
0 0 0 0 0 0 1 418 
3 0 0 1 1 0 2 421 419 
10 0 0 3 1 0 1 420 
4 0 0 2 2 0 1 422 
1 0 0 1 2 0 1 422 
3 0 0 2 1 0 2 424 423 
8 0 0 4 2 0 3 434 430 425 
3 0 0 3 3 0 3 430 429 426 
10 0 0 3 4 0 2 429 426 
6 0 0 4 3 0 3 432 428 427 
9 0 0 1 4 0 4 437 436 433 431 
7 0 0 1 3 0 3 437 436 431 
5 0 0 2 2 0 3 436 432 431 
1 0 0 5 3 0 2 436 435 
6 0 0 4 1 0 1 435 
10 0 0 3 4 0 1 435 
8 0 0 2 1 0 1 435 
9 0 0 2 4 0 1 437 
3 0 0 1 2 0 1 438 
8 0 0 4 4 0 1 438 
2 0 0 2 3 0 1 438 
0 0 0 0 0 0 1 543 
0 0 0 0 0 0 1 440 
2 0 1 0 0 1 1 441 
7 0 4 0 0 3 2 443 442 
6 0 2 0 0 1 1 444 
4 0 2 0 0 5 1 444 
2 0 4 0 0 2 1 445 
6 0 2 0 0 5 2 447 446 
8 0 1 0 0 2 1 448 
9 0 3 0 0 1 1 448 
8 0 1 0 0 3 5 453 452 451 450 449 
8 0 1 0 0 3 5 458 457 456 455 454 
7 0 2 0 0 2 5 458 457 456 455 454 
10 0 3 0 0 1 5 458 457 456 455 454 
10 0 4 0 0 2 4 458 456 455 454 
4 0 3 0 0 5 4 457 456 455 454 
9 0 2 0 0 4 1 459 
4 0 2 0 0 2 1 459 
8 0 2 0 0 1 1 459 
6 0 4 0 0 2 1 459 
5 0 3 0 0 2 1 459 
4 0 4 0 0 3 1 460 
0 0 0 0 0 0 1 543 
0 0 0 0 0 0 2 462 464 
2 1 0 0 1 0 2 467 463 
1 2 0 0 3 0 1 465 
5 1 0 0 3 0 1 465 
9 2 0 0 1 0 3 470 468 466 
5 5 0 0 4 0 3 481 472 469 
10 2 0 0 3 0 3 473 471 470 
6 2 0 0 2 0 3 475 474 473 
2 1 0 0 2 0 2 475 471 
7 2 0 0 4 0 3 480 479 476 
9 3 0 0 2 0 2 479 474 
8 2 0 0 2 0 2 479 474 
6 3 0 0 3 0 3 481 479 478 
5 3 0 0 1 0 1 476 
3 3 0 0 4 0 2 480 478 
10 4 0 0 2 0 1 477 
1 2 0 0 3 0 1 478 
8 4 0 0 4 0 1 482 
5 3 0 0 3 0 1 482 
2 2 0 0 1 0 1 482 
2 3 0 0 2 0 1 482 
0 0 0 0 0 0 1 543 
0 0 0 0 0 0 1 484 
10 0 0 1 0 0 3 490 486 485 
5 0 0 1 0 0 2 488 487 
6 0 0 3 0 0 2 488 487 
2 0 0 2 0 0 3 493 492 491 
4 0 0 3 0 0 1 489 
8 0 0 6 0 0 1 491 
8 0 0 2 0 0 1 491 
3 0 0 2 0 0 1 494 
7 0 0 2 0 0 1 494 
2 0 0 3 0 0 1 494 
0 0 0 0 0 0 1 543 
0 0 0 0 0 0 4 496 497 498 499 
9 0 0 1 0 0 2 502 500 
8 0 0 1 0 0 2 504 501 
5 0 0 2 0 0 2 504 503 
1 0 0 5 0 0 2 504 503 
7 0 0 1 0 0 1 501 
1 0 0 4 0 0 1 503 
3 0 0 4 0 0 1 504 
6 0 0 2 0 0 1 505 
7 0 0 3 0 0 1 505 
2 0 0 2 0 0 1 506 
0 0 0 0 0 0 1 543 
0 0 0 0 0 0 4 508 509 511 513 
8 0 0 0 1 0 2 517 510 
7 0 0 0 5 0 2 517 512 
10 0 0 0 4 0 1 512 
4 0 0 0 4 0 1 512 
7 0 0 0 2 0 2 516 514 
1 0 0 0 3 0 2 516 514 
1 0 0 0 1 0 1 515 
3 0 0 0 1 0 1 518 
6 0 0 0 2 0 1 518 
3 0 0 0 2 0 1 518 
0 0 0 0 0 0 1 543 
0 0 0 0 0 0 2 520 522 
3 0 1 0 0 0 1 521 
5 0 3 0 0 0 2 527 523 
1 0 3 0 0 0 1 524 
9 0 4 0 0 0 2 526 525 
8 0 2 0 0 0 2 526 525 
10 0 1 0 0 0 1 529 
4 0 3 0 0 0 1 528 
9 0 2 0 0 0 1 528 
2 0 2 0 0 0 1 530 
9 0 4 0 0 0 1 530 
0 0 0 0 0 0 1 543 
0 0 0 0 0 0 1 532 
1 0 1 0 0 0 2 534 533 
5 0 3 0 0 0 3 537 536 535 
7 0 2 0 0 0 2 536 535 
6 0 3 0 0 0 3 541 540 538 
4 0 3 0 0 0 2 540 538 
2 0 3 0 0 0 2 540 538 
6 0 2 0 0 0 1 539 
10 0 2 0 0 0 1 542 
4 0 2 0 0 0 1 542 
10 0 4 0 0 0 1 542 
0 0 0 0 0 0 1 543 
0 0 0 0 0 0 0 
